17100972856269822635012,2,1,2,07,8,1,2,07,1,1,2,015,6,1,2,02,4,1,2,08,1,1,2,010,2,1,2,04,6,1,2,06,2,1,2,01,3,1,2,012,9,1,2,01,5,1,2,09,6,1,2,012,2,1,2,011,5,1,2,012,13,1,2,011,3,1,2,09,4,1,2,015,15,1,2,05,5,1,2,014,1,1,2,011,10,1,2,01,2,1,2,05,10,1,2,04,12,1,2,01,9,1,2,04,5,1,2,015,10,1,2,08,9,1,2,04,3,1,2,07,6,1,2,011,10,1,2,05,4,1,2,03,6,1,2,04,11,1,2,09,13,1,2,05,1,1,2,015,6,1,2,02,12,1,2,011,6,1,2,01,6,1,2,02,1,1,2,010,13,1,2,013,12,1,2,014,11,1,2,03,3,1,2,08,11,1,2,07,2,1,2,012,4,1,2,09,6,1,2,0